32
120
84	1
83	3
82	1
80	2
75	2
69	1
67	2
66	3
65	2
64	1
62	1
61	1
60	1
57	1
56	1
55	1
54	2
53	1
51	1
50	1
49	2
47	2
45	2
42	1
38	1
37	3
36	1
35	1
32	1
30	5
28	1
24	1
